(set-info :smt-lib-version 2.6)
(set-logic QF_NIA)
(set-info :source |
Generated by: Cristina Borralleras, Daniel Larraz, Albert Oliveras, Enric Rodriguez-Carbonell, Albert Rubio
Generated on: 2017-04-27
Generator: VeryMax
Application: Termination proving
Target solver: barcelogic
|)
(set-info :license "https://creativecommons.org/licenses/by/4.0/")
(set-info :category "industrial")
(set-info :status sat)
(declare-fun Nl2arg11 () Int)
(declare-fun Nl2arg12 () Int)
(declare-fun Nl2arg13 () Int)
(declare-fun lam0n0 () Int)
(declare-fun lam0n1 () Int)
(declare-fun lam0n2 () Int)
(declare-fun lam0n3 () Int)
(declare-fun lam0n4 () Int)
(declare-fun Nl2CT1 () Int)
(declare-fun Nl2CT2 () Int)
(declare-fun Nl2CT3 () Int)
(declare-fun lam1n0 () Int)
(declare-fun lam1n1 () Int)
(declare-fun lam1n2 () Int)
(declare-fun lam1n3 () Int)
(declare-fun lam1n4 () Int)
(declare-fun lam2n0 () Int)
(declare-fun lam2n1 () Int)
(declare-fun lam2n2 () Int)
(declare-fun lam2n3 () Int)
(declare-fun lam2n4 () Int)
(declare-fun lam3n0 () Int)
(declare-fun lam3n1 () Int)
(declare-fun lam3n2 () Int)
(declare-fun lam3n3 () Int)
(declare-fun lam3n4 () Int)
(declare-fun lam4n0 () Int)
(declare-fun lam4n1 () Int)
(declare-fun lam4n2 () Int)
(declare-fun lam4n3 () Int)
(declare-fun lam4n4 () Int)
(declare-fun lam5n0 () Int)
(declare-fun lam5n1 () Int)
(declare-fun lam5n2 () Int)
(declare-fun lam5n3 () Int)
(declare-fun lam5n4 () Int)
(declare-fun lam6n0 () Int)
(declare-fun lam6n1 () Int)
(declare-fun lam6n2 () Int)
(declare-fun lam6n3 () Int)
(declare-fun lam6n4 () Int)
(declare-fun lam7n0 () Int)
(declare-fun lam7n1 () Int)
(declare-fun lam7n2 () Int)
(declare-fun lam7n3 () Int)
(declare-fun lam7n4 () Int)
(declare-fun lam8n0 () Int)
(declare-fun lam8n1 () Int)
(declare-fun lam8n2 () Int)
(declare-fun lam8n3 () Int)
(declare-fun lam9n0 () Int)
(declare-fun lam9n1 () Int)
(declare-fun lam9n2 () Int)
(declare-fun lam9n3 () Int)
(declare-fun lam10n0 () Int)
(declare-fun lam10n1 () Int)
(declare-fun lam10n2 () Int)
(declare-fun lam10n3 () Int)
(declare-fun lam11n0 () Int)
(declare-fun lam11n1 () Int)
(declare-fun lam11n2 () Int)
(declare-fun lam11n3 () Int)
(declare-fun lam12n0 () Int)
(declare-fun lam12n1 () Int)
(declare-fun lam12n2 () Int)
(declare-fun lam12n3 () Int)
(declare-fun lam13n0 () Int)
(declare-fun lam13n1 () Int)
(declare-fun lam13n2 () Int)
(declare-fun lam13n3 () Int)
(declare-fun lam14n0 () Int)
(declare-fun lam14n1 () Int)
(declare-fun lam14n2 () Int)
(declare-fun lam14n3 () Int)
(declare-fun lam15n0 () Int)
(declare-fun lam15n1 () Int)
(declare-fun lam15n2 () Int)
(declare-fun lam15n3 () Int)
(declare-fun lam16n0 () Int)
(declare-fun lam16n1 () Int)
(declare-fun lam16n2 () Int)
(declare-fun lam16n3 () Int)
(declare-fun lam17n0 () Int)
(declare-fun lam17n1 () Int)
(declare-fun lam17n2 () Int)
(declare-fun lam17n3 () Int)
(declare-fun lam18n0 () Int)
(declare-fun lam18n1 () Int)
(declare-fun lam18n2 () Int)
(declare-fun lam18n3 () Int)
(declare-fun undef12 () Int)
(declare-fun arg1 () Int)
(declare-fun undef11 () Int)
(declare-fun lam22n0 () Int)
(declare-fun lam22n1 () Int)
(declare-fun lam22n2 () Int)
(declare-fun lam22n3 () Int)
(declare-fun lam22n4 () Int)
(declare-fun RFN1_CT () Int)
(declare-fun RFN1_arg1 () Int)
(declare-fun lam26n0 () Int)
(declare-fun lam26n1 () Int)
(declare-fun lam26n2 () Int)
(declare-fun lam26n3 () Int)
(declare-fun lam26n4 () Int)
(declare-fun lam30n0 () Int)
(declare-fun lam30n1 () Int)
(declare-fun lam30n2 () Int)
(declare-fun lam30n3 () Int)
(declare-fun lam34n0 () Int)
(declare-fun lam34n1 () Int)
(declare-fun lam34n2 () Int)
(declare-fun lam34n3 () Int)
(declare-fun lam20n0 () Int)
(declare-fun lam20n1 () Int)
(declare-fun lam20n2 () Int)
(declare-fun lam20n3 () Int)
(declare-fun lam20n4 () Int)
(declare-fun lam21n0 () Int)
(declare-fun lam21n1 () Int)
(declare-fun lam21n2 () Int)
(declare-fun lam21n3 () Int)
(declare-fun lam21n4 () Int)
(declare-fun lam24n0 () Int)
(declare-fun lam24n1 () Int)
(declare-fun lam24n2 () Int)
(declare-fun lam24n3 () Int)
(declare-fun lam24n4 () Int)
(declare-fun lam25n0 () Int)
(declare-fun lam25n1 () Int)
(declare-fun lam25n2 () Int)
(declare-fun lam25n3 () Int)
(declare-fun lam25n4 () Int)
(declare-fun lam28n0 () Int)
(declare-fun lam28n1 () Int)
(declare-fun lam28n2 () Int)
(declare-fun lam28n3 () Int)
(declare-fun lam29n0 () Int)
(declare-fun lam29n1 () Int)
(declare-fun lam29n2 () Int)
(declare-fun lam29n3 () Int)
(declare-fun lam32n0 () Int)
(declare-fun lam32n1 () Int)
(declare-fun lam32n2 () Int)
(declare-fun lam32n3 () Int)
(declare-fun lam33n0 () Int)
(declare-fun lam33n1 () Int)
(declare-fun lam33n2 () Int)
(declare-fun lam33n3 () Int)
(declare-fun lam19n0 () Int)
(declare-fun lam19n1 () Int)
(declare-fun lam19n2 () Int)
(declare-fun lam19n3 () Int)
(declare-fun lam19n4 () Int)
(declare-fun lam23n0 () Int)
(declare-fun lam23n1 () Int)
(declare-fun lam23n2 () Int)
(declare-fun lam23n3 () Int)
(declare-fun lam23n4 () Int)
(declare-fun lam27n0 () Int)
(declare-fun lam27n1 () Int)
(declare-fun lam27n2 () Int)
(declare-fun lam27n3 () Int)
(declare-fun lam31n0 () Int)
(declare-fun lam31n1 () Int)
(declare-fun lam31n2 () Int)
(declare-fun lam31n3 () Int)
(assert ( and ( <= ( - 2 ) Nl2arg11 ) ( <= Nl2arg11 2 ) ( <= ( - 2 ) Nl2arg12 ) ( <= Nl2arg12 2 ) ( <= ( - 2 ) Nl2arg13 ) ( <= Nl2arg13 2 ) ))
(assert ( or ( and ( >= lam0n0 0 ) ( >= lam0n1 0 ) ( >= lam0n2 0 ) ( >= lam0n3 0 ) ( >= lam0n4 0 ) ( > ( + ( * 1 lam0n0 ) ( * ( - 2 ) lam0n1 ) ( * Nl2CT1 lam0n2 ) ( * Nl2CT2 lam0n3 ) ( * Nl2CT3 lam0n4 ) ( - 1 ) ) 0 ) ( = ( + ( * 1 lam0n0 ) ( * ( - 1 ) lam0n1 ) ( * Nl2arg11 lam0n2 ) ( * Nl2arg12 lam0n3 ) ( * Nl2arg13 lam0n4 ) ) 0 ) ) ( and ( >= lam1n0 0 ) ( >= lam1n1 0 ) ( >= lam1n2 0 ) ( >= lam1n3 0 ) ( >= lam1n4 0 ) ( > ( + ( * 1 lam1n0 ) ( * ( - 2 ) lam1n1 ) ( * Nl2CT1 lam1n2 ) ( * Nl2CT2 lam1n3 ) ( * Nl2CT3 lam1n4 ) ( - 1 ( + Nl2CT1 ( * Nl2arg11 2 ) ) ) ) 0 ) ( = ( + ( * 1 lam1n0 ) ( * ( - 1 ) lam1n1 ) ( * Nl2arg11 lam1n2 ) ( * Nl2arg12 lam1n3 ) ( * Nl2arg13 lam1n4 ) ( - ( + 0 ( * Nl2arg11 1 ) ) ) ) 0 ) ) ))
(assert ( or ( and ( >= lam0n0 0 ) ( >= lam0n1 0 ) ( >= lam0n2 0 ) ( >= lam0n3 0 ) ( >= lam0n4 0 ) ( > ( + ( * 1 lam0n0 ) ( * ( - 2 ) lam0n1 ) ( * Nl2CT1 lam0n2 ) ( * Nl2CT2 lam0n3 ) ( * Nl2CT3 lam0n4 ) ( - 1 ) ) 0 ) ( = ( + ( * 1 lam0n0 ) ( * ( - 1 ) lam0n1 ) ( * Nl2arg11 lam0n2 ) ( * Nl2arg12 lam0n3 ) ( * Nl2arg13 lam0n4 ) ) 0 ) ) ( and ( >= lam2n0 0 ) ( >= lam2n1 0 ) ( >= lam2n2 0 ) ( >= lam2n3 0 ) ( >= lam2n4 0 ) ( > ( + ( * 1 lam2n0 ) ( * ( - 2 ) lam2n1 ) ( * Nl2CT1 lam2n2 ) ( * Nl2CT2 lam2n3 ) ( * Nl2CT3 lam2n4 ) ( - 1 ( + Nl2CT2 ( * Nl2arg12 2 ) ) ) ) 0 ) ( = ( + ( * 1 lam2n0 ) ( * ( - 1 ) lam2n1 ) ( * Nl2arg11 lam2n2 ) ( * Nl2arg12 lam2n3 ) ( * Nl2arg13 lam2n4 ) ( - ( + 0 ( * Nl2arg12 1 ) ) ) ) 0 ) ) ))
(assert ( or ( and ( >= lam0n0 0 ) ( >= lam0n1 0 ) ( >= lam0n2 0 ) ( >= lam0n3 0 ) ( >= lam0n4 0 ) ( > ( + ( * 1 lam0n0 ) ( * ( - 2 ) lam0n1 ) ( * Nl2CT1 lam0n2 ) ( * Nl2CT2 lam0n3 ) ( * Nl2CT3 lam0n4 ) ( - 1 ) ) 0 ) ( = ( + ( * 1 lam0n0 ) ( * ( - 1 ) lam0n1 ) ( * Nl2arg11 lam0n2 ) ( * Nl2arg12 lam0n3 ) ( * Nl2arg13 lam0n4 ) ) 0 ) ) ( and ( >= lam3n0 0 ) ( >= lam3n1 0 ) ( >= lam3n2 0 ) ( >= lam3n3 0 ) ( >= lam3n4 0 ) ( > ( + ( * 1 lam3n0 ) ( * ( - 2 ) lam3n1 ) ( * Nl2CT1 lam3n2 ) ( * Nl2CT2 lam3n3 ) ( * Nl2CT3 lam3n4 ) ( - 1 ( + Nl2CT3 ( * Nl2arg13 2 ) ) ) ) 0 ) ( = ( + ( * 1 lam3n0 ) ( * ( - 1 ) lam3n1 ) ( * Nl2arg11 lam3n2 ) ( * Nl2arg12 lam3n3 ) ( * Nl2arg13 lam3n4 ) ( - ( + 0 ( * Nl2arg13 1 ) ) ) ) 0 ) ) ))
(assert ( or ( and ( >= lam4n0 0 ) ( >= lam4n1 0 ) ( >= lam4n2 0 ) ( >= lam4n3 0 ) ( >= lam4n4 0 ) ( > ( + ( * 1 lam4n0 ) ( * ( - 2 ) lam4n1 ) ( * Nl2CT1 lam4n2 ) ( * Nl2CT2 lam4n3 ) ( * Nl2CT3 lam4n4 ) ( - 1 ) ) 0 ) ( = ( + ( * ( - 1 ) lam4n0 ) ( * 1 lam4n1 ) ( * Nl2arg11 lam4n2 ) ( * Nl2arg12 lam4n3 ) ( * Nl2arg13 lam4n4 ) ) 0 ) ) ( and ( >= lam5n0 0 ) ( >= lam5n1 0 ) ( >= lam5n2 0 ) ( >= lam5n3 0 ) ( >= lam5n4 0 ) ( > ( + ( * 1 lam5n0 ) ( * ( - 2 ) lam5n1 ) ( * Nl2CT1 lam5n2 ) ( * Nl2CT2 lam5n3 ) ( * Nl2CT3 lam5n4 ) ( - 1 ( + Nl2CT1 ( * Nl2arg11 ( - 2 ) ) ) ) ) 0 ) ( = ( + ( * ( - 1 ) lam5n0 ) ( * 1 lam5n1 ) ( * Nl2arg11 lam5n2 ) ( * Nl2arg12 lam5n3 ) ( * Nl2arg13 lam5n4 ) ( - ( + 0 ( * Nl2arg11 1 ) ) ) ) 0 ) ) ))
(assert ( or ( and ( >= lam4n0 0 ) ( >= lam4n1 0 ) ( >= lam4n2 0 ) ( >= lam4n3 0 ) ( >= lam4n4 0 ) ( > ( + ( * 1 lam4n0 ) ( * ( - 2 ) lam4n1 ) ( * Nl2CT1 lam4n2 ) ( * Nl2CT2 lam4n3 ) ( * Nl2CT3 lam4n4 ) ( - 1 ) ) 0 ) ( = ( + ( * ( - 1 ) lam4n0 ) ( * 1 lam4n1 ) ( * Nl2arg11 lam4n2 ) ( * Nl2arg12 lam4n3 ) ( * Nl2arg13 lam4n4 ) ) 0 ) ) ( and ( >= lam6n0 0 ) ( >= lam6n1 0 ) ( >= lam6n2 0 ) ( >= lam6n3 0 ) ( >= lam6n4 0 ) ( > ( + ( * 1 lam6n0 ) ( * ( - 2 ) lam6n1 ) ( * Nl2CT1 lam6n2 ) ( * Nl2CT2 lam6n3 ) ( * Nl2CT3 lam6n4 ) ( - 1 ( + Nl2CT2 ( * Nl2arg12 ( - 2 ) ) ) ) ) 0 ) ( = ( + ( * ( - 1 ) lam6n0 ) ( * 1 lam6n1 ) ( * Nl2arg11 lam6n2 ) ( * Nl2arg12 lam6n3 ) ( * Nl2arg13 lam6n4 ) ( - ( + 0 ( * Nl2arg12 1 ) ) ) ) 0 ) ) ))
(assert ( or ( and ( >= lam4n0 0 ) ( >= lam4n1 0 ) ( >= lam4n2 0 ) ( >= lam4n3 0 ) ( >= lam4n4 0 ) ( > ( + ( * 1 lam4n0 ) ( * ( - 2 ) lam4n1 ) ( * Nl2CT1 lam4n2 ) ( * Nl2CT2 lam4n3 ) ( * Nl2CT3 lam4n4 ) ( - 1 ) ) 0 ) ( = ( + ( * ( - 1 ) lam4n0 ) ( * 1 lam4n1 ) ( * Nl2arg11 lam4n2 ) ( * Nl2arg12 lam4n3 ) ( * Nl2arg13 lam4n4 ) ) 0 ) ) ( and ( >= lam7n0 0 ) ( >= lam7n1 0 ) ( >= lam7n2 0 ) ( >= lam7n3 0 ) ( >= lam7n4 0 ) ( > ( + ( * 1 lam7n0 ) ( * ( - 2 ) lam7n1 ) ( * Nl2CT1 lam7n2 ) ( * Nl2CT2 lam7n3 ) ( * Nl2CT3 lam7n4 ) ( - 1 ( + Nl2CT3 ( * Nl2arg13 ( - 2 ) ) ) ) ) 0 ) ( = ( + ( * ( - 1 ) lam7n0 ) ( * 1 lam7n1 ) ( * Nl2arg11 lam7n2 ) ( * Nl2arg12 lam7n3 ) ( * Nl2arg13 lam7n4 ) ( - ( + 0 ( * Nl2arg13 1 ) ) ) ) 0 ) ) ))
(assert ( or ( and ( >= lam8n0 0 ) ( >= lam8n1 0 ) ( >= lam8n2 0 ) ( >= lam8n3 0 ) ( > ( + ( * 3 lam8n0 ) ( * Nl2CT1 lam8n1 ) ( * Nl2CT2 lam8n2 ) ( * Nl2CT3 lam8n3 ) ( - 1 ) ) 0 ) ( = ( + ( * ( - 1 ) lam8n0 ) ( * Nl2arg11 lam8n1 ) ( * Nl2arg12 lam8n2 ) ( * Nl2arg13 lam8n3 ) ) 0 ) ) ( and ( >= lam9n0 0 ) ( >= lam9n1 0 ) ( >= lam9n2 0 ) ( >= lam9n3 0 ) ( > ( + ( * 3 lam9n0 ) ( * Nl2CT1 lam9n1 ) ( * Nl2CT2 lam9n2 ) ( * Nl2CT3 lam9n3 ) ( - 1 ( + Nl2CT1 ( * Nl2arg11 2 ) ) ) ) 0 ) ( = ( + ( * ( - 1 ) lam9n0 ) ( * Nl2arg11 lam9n1 ) ( * Nl2arg12 lam9n2 ) ( * Nl2arg13 lam9n3 ) ( - ( + 0 ( * Nl2arg11 ( - 1 ) ) ) ) ) 0 ) ) ))
(assert ( or ( and ( >= lam8n0 0 ) ( >= lam8n1 0 ) ( >= lam8n2 0 ) ( >= lam8n3 0 ) ( > ( + ( * 3 lam8n0 ) ( * Nl2CT1 lam8n1 ) ( * Nl2CT2 lam8n2 ) ( * Nl2CT3 lam8n3 ) ( - 1 ) ) 0 ) ( = ( + ( * ( - 1 ) lam8n0 ) ( * Nl2arg11 lam8n1 ) ( * Nl2arg12 lam8n2 ) ( * Nl2arg13 lam8n3 ) ) 0 ) ) ( and ( >= lam10n0 0 ) ( >= lam10n1 0 ) ( >= lam10n2 0 ) ( >= lam10n3 0 ) ( > ( + ( * 3 lam10n0 ) ( * Nl2CT1 lam10n1 ) ( * Nl2CT2 lam10n2 ) ( * Nl2CT3 lam10n3 ) ( - 1 ( + Nl2CT2 ( * Nl2arg12 2 ) ) ) ) 0 ) ( = ( + ( * ( - 1 ) lam10n0 ) ( * Nl2arg11 lam10n1 ) ( * Nl2arg12 lam10n2 ) ( * Nl2arg13 lam10n3 ) ( - ( + 0 ( * Nl2arg12 ( - 1 ) ) ) ) ) 0 ) ) ))
(assert ( or ( and ( >= lam8n0 0 ) ( >= lam8n1 0 ) ( >= lam8n2 0 ) ( >= lam8n3 0 ) ( > ( + ( * 3 lam8n0 ) ( * Nl2CT1 lam8n1 ) ( * Nl2CT2 lam8n2 ) ( * Nl2CT3 lam8n3 ) ( - 1 ) ) 0 ) ( = ( + ( * ( - 1 ) lam8n0 ) ( * Nl2arg11 lam8n1 ) ( * Nl2arg12 lam8n2 ) ( * Nl2arg13 lam8n3 ) ) 0 ) ) ( and ( >= lam11n0 0 ) ( >= lam11n1 0 ) ( >= lam11n2 0 ) ( >= lam11n3 0 ) ( > ( + ( * 3 lam11n0 ) ( * Nl2CT1 lam11n1 ) ( * Nl2CT2 lam11n2 ) ( * Nl2CT3 lam11n3 ) ( - 1 ( + Nl2CT3 ( * Nl2arg13 2 ) ) ) ) 0 ) ( = ( + ( * ( - 1 ) lam11n0 ) ( * Nl2arg11 lam11n1 ) ( * Nl2arg12 lam11n2 ) ( * Nl2arg13 lam11n3 ) ( - ( + 0 ( * Nl2arg13 ( - 1 ) ) ) ) ) 0 ) ) ))
(assert ( or ( and ( >= lam12n0 0 ) ( >= lam12n1 0 ) ( >= lam12n2 0 ) ( >= lam12n3 0 ) ( > ( + ( * 3 lam12n0 ) ( * Nl2CT1 lam12n1 ) ( * Nl2CT2 lam12n2 ) ( * Nl2CT3 lam12n3 ) ( - 1 ) ) 0 ) ( = ( + ( * 1 lam12n0 ) ( * Nl2arg11 lam12n1 ) ( * Nl2arg12 lam12n2 ) ( * Nl2arg13 lam12n3 ) ) 0 ) ) ( and ( >= lam13n0 0 ) ( >= lam13n1 0 ) ( >= lam13n2 0 ) ( >= lam13n3 0 ) ( > ( + ( * 3 lam13n0 ) ( * Nl2CT1 lam13n1 ) ( * Nl2CT2 lam13n2 ) ( * Nl2CT3 lam13n3 ) ( - 1 ( + Nl2CT1 ( * Nl2arg11 ( - 2 ) ) ) ) ) 0 ) ( = ( + ( * 1 lam13n0 ) ( * Nl2arg11 lam13n1 ) ( * Nl2arg12 lam13n2 ) ( * Nl2arg13 lam13n3 ) ( - ( + 0 ( * Nl2arg11 ( - 1 ) ) ) ) ) 0 ) ) ))
(assert ( or ( and ( >= lam12n0 0 ) ( >= lam12n1 0 ) ( >= lam12n2 0 ) ( >= lam12n3 0 ) ( > ( + ( * 3 lam12n0 ) ( * Nl2CT1 lam12n1 ) ( * Nl2CT2 lam12n2 ) ( * Nl2CT3 lam12n3 ) ( - 1 ) ) 0 ) ( = ( + ( * 1 lam12n0 ) ( * Nl2arg11 lam12n1 ) ( * Nl2arg12 lam12n2 ) ( * Nl2arg13 lam12n3 ) ) 0 ) ) ( and ( >= lam14n0 0 ) ( >= lam14n1 0 ) ( >= lam14n2 0 ) ( >= lam14n3 0 ) ( > ( + ( * 3 lam14n0 ) ( * Nl2CT1 lam14n1 ) ( * Nl2CT2 lam14n2 ) ( * Nl2CT3 lam14n3 ) ( - 1 ( + Nl2CT2 ( * Nl2arg12 ( - 2 ) ) ) ) ) 0 ) ( = ( + ( * 1 lam14n0 ) ( * Nl2arg11 lam14n1 ) ( * Nl2arg12 lam14n2 ) ( * Nl2arg13 lam14n3 ) ( - ( + 0 ( * Nl2arg12 ( - 1 ) ) ) ) ) 0 ) ) ))
(assert ( or ( and ( >= lam12n0 0 ) ( >= lam12n1 0 ) ( >= lam12n2 0 ) ( >= lam12n3 0 ) ( > ( + ( * 3 lam12n0 ) ( * Nl2CT1 lam12n1 ) ( * Nl2CT2 lam12n2 ) ( * Nl2CT3 lam12n3 ) ( - 1 ) ) 0 ) ( = ( + ( * 1 lam12n0 ) ( * Nl2arg11 lam12n1 ) ( * Nl2arg12 lam12n2 ) ( * Nl2arg13 lam12n3 ) ) 0 ) ) ( and ( >= lam15n0 0 ) ( >= lam15n1 0 ) ( >= lam15n2 0 ) ( >= lam15n3 0 ) ( > ( + ( * 3 lam15n0 ) ( * Nl2CT1 lam15n1 ) ( * Nl2CT2 lam15n2 ) ( * Nl2CT3 lam15n3 ) ( - 1 ( + Nl2CT3 ( * Nl2arg13 ( - 2 ) ) ) ) ) 0 ) ( = ( + ( * 1 lam15n0 ) ( * Nl2arg11 lam15n1 ) ( * Nl2arg12 lam15n2 ) ( * Nl2arg13 lam15n3 ) ( - ( + 0 ( * Nl2arg13 ( - 1 ) ) ) ) ) 0 ) ) ))
(assert ( and ( <= ( * ( - 1 ) undef12 ) 0 ) ( not ( <= arg1 0 ) ) ( <= ( + 1 ( * ( - 1 ) undef11 ) ) 0 ) ( = ( + arg1 ( * ( - 1 ) undef12 ) ) 0 ) ( <= ( + Nl2CT1 ( * ( + 0 Nl2arg11 ) arg1 ) ) 0 ) ( <= ( + Nl2CT2 ( * ( + 0 Nl2arg12 ) arg1 ) ) 0 ) ( <= ( + Nl2CT3 ( * ( + 0 Nl2arg13 ) arg1 ) ) 0 ) ))
(assert ( or ( and ( and ( and ( >= lam22n0 0 ) ( >= lam22n1 0 ) ( >= lam22n2 0 ) ( >= lam22n3 0 ) ( >= lam22n4 0 ) ( > ( + ( * 1 lam22n0 ) ( * ( - 2 ) lam22n1 ) ( * Nl2CT1 lam22n2 ) ( * Nl2CT2 lam22n3 ) ( * Nl2CT3 lam22n4 ) ( - 1 ( - ( + RFN1_CT ( * RFN1_arg1 2 ) ) RFN1_CT ) ) ) 0 ) ( = ( + ( * 1 lam22n0 ) ( * ( - 1 ) lam22n1 ) ( * Nl2arg11 lam22n2 ) ( * Nl2arg12 lam22n3 ) ( * Nl2arg13 lam22n4 ) ( - ( - ( + 0 ( * RFN1_arg1 1 ) ) RFN1_arg1 ) ) ) 0 ) ) ( and ( >= lam26n0 0 ) ( >= lam26n1 0 ) ( >= lam26n2 0 ) ( >= lam26n3 0 ) ( >= lam26n4 0 ) ( > ( + ( * 1 lam26n0 ) ( * ( - 2 ) lam26n1 ) ( * Nl2CT1 lam26n2 ) ( * Nl2CT2 lam26n3 ) ( * Nl2CT3 lam26n4 ) ( - 1 ( - ( + RFN1_CT ( * RFN1_arg1 ( - 2 ) ) ) RFN1_CT ) ) ) 0 ) ( = ( + ( * ( - 1 ) lam26n0 ) ( * 1 lam26n1 ) ( * Nl2arg11 lam26n2 ) ( * Nl2arg12 lam26n3 ) ( * Nl2arg13 lam26n4 ) ( - ( - ( + 0 ( * RFN1_arg1 1 ) ) RFN1_arg1 ) ) ) 0 ) ) ( and ( >= lam30n0 0 ) ( >= lam30n1 0 ) ( >= lam30n2 0 ) ( >= lam30n3 0 ) ( > ( + ( * 3 lam30n0 ) ( * Nl2CT1 lam30n1 ) ( * Nl2CT2 lam30n2 ) ( * Nl2CT3 lam30n3 ) ( - 1 ( - ( + RFN1_CT ( * RFN1_arg1 2 ) ) RFN1_CT ) ) ) 0 ) ( = ( + ( * ( - 1 ) lam30n0 ) ( * Nl2arg11 lam30n1 ) ( * Nl2arg12 lam30n2 ) ( * Nl2arg13 lam30n3 ) ( - ( - ( + 0 ( * RFN1_arg1 ( - 1 ) ) ) RFN1_arg1 ) ) ) 0 ) ) ( and ( >= lam34n0 0 ) ( >= lam34n1 0 ) ( >= lam34n2 0 ) ( >= lam34n3 0 ) ( > ( + ( * 3 lam34n0 ) ( * Nl2CT1 lam34n1 ) ( * Nl2CT2 lam34n2 ) ( * Nl2CT3 lam34n3 ) ( - 1 ( - ( + RFN1_CT ( * RFN1_arg1 ( - 2 ) ) ) RFN1_CT ) ) ) 0 ) ( = ( + ( * 1 lam34n0 ) ( * Nl2arg11 lam34n1 ) ( * Nl2arg12 lam34n2 ) ( * Nl2arg13 lam34n3 ) ( - ( - ( + 0 ( * RFN1_arg1 ( - 1 ) ) ) RFN1_arg1 ) ) ) 0 ) ) ) ( or ( and ( and ( >= lam20n0 0 ) ( >= lam20n1 0 ) ( >= lam20n2 0 ) ( >= lam20n3 0 ) ( >= lam20n4 0 ) ( > ( + ( * 1 lam20n0 ) ( * ( - 2 ) lam20n1 ) ( * Nl2CT1 lam20n2 ) ( * Nl2CT2 lam20n3 ) ( * Nl2CT3 lam20n4 ) ( - 1 ( - RFN1_CT ) ) ) 0 ) ( = ( + ( * 1 lam20n0 ) ( * ( - 1 ) lam20n1 ) ( * Nl2arg11 lam20n2 ) ( * Nl2arg12 lam20n3 ) ( * Nl2arg13 lam20n4 ) ( - ( - RFN1_arg1 ) ) ) 0 ) ) ( and ( >= lam21n0 0 ) ( >= lam21n1 0 ) ( >= lam21n2 0 ) ( >= lam21n3 0 ) ( >= lam21n4 0 ) ( > ( + ( * 1 lam21n0 ) ( * ( - 2 ) lam21n1 ) ( * Nl2CT1 lam21n2 ) ( * Nl2CT2 lam21n3 ) ( * Nl2CT3 lam21n4 ) ( - 1 ( + ( - ( + RFN1_CT ( * RFN1_arg1 2 ) ) RFN1_CT ) 1 ) ) ) 0 ) ( = ( + ( * 1 lam21n0 ) ( * ( - 1 ) lam21n1 ) ( * Nl2arg11 lam21n2 ) ( * Nl2arg12 lam21n3 ) ( * Nl2arg13 lam21n4 ) ( - ( - ( + 0 ( * RFN1_arg1 1 ) ) RFN1_arg1 ) ) ) 0 ) ) ) ( and ( and ( >= lam24n0 0 ) ( >= lam24n1 0 ) ( >= lam24n2 0 ) ( >= lam24n3 0 ) ( >= lam24n4 0 ) ( > ( + ( * 1 lam24n0 ) ( * ( - 2 ) lam24n1 ) ( * Nl2CT1 lam24n2 ) ( * Nl2CT2 lam24n3 ) ( * Nl2CT3 lam24n4 ) ( - 1 ( - RFN1_CT ) ) ) 0 ) ( = ( + ( * ( - 1 ) lam24n0 ) ( * 1 lam24n1 ) ( * Nl2arg11 lam24n2 ) ( * Nl2arg12 lam24n3 ) ( * Nl2arg13 lam24n4 ) ( - ( - RFN1_arg1 ) ) ) 0 ) ) ( and ( >= lam25n0 0 ) ( >= lam25n1 0 ) ( >= lam25n2 0 ) ( >= lam25n3 0 ) ( >= lam25n4 0 ) ( > ( + ( * 1 lam25n0 ) ( * ( - 2 ) lam25n1 ) ( * Nl2CT1 lam25n2 ) ( * Nl2CT2 lam25n3 ) ( * Nl2CT3 lam25n4 ) ( - 1 ( + ( - ( + RFN1_CT ( * RFN1_arg1 ( - 2 ) ) ) RFN1_CT ) 1 ) ) ) 0 ) ( = ( + ( * ( - 1 ) lam25n0 ) ( * 1 lam25n1 ) ( * Nl2arg11 lam25n2 ) ( * Nl2arg12 lam25n3 ) ( * Nl2arg13 lam25n4 ) ( - ( - ( + 0 ( * RFN1_arg1 1 ) ) RFN1_arg1 ) ) ) 0 ) ) ) ( and ( and ( >= lam28n0 0 ) ( >= lam28n1 0 ) ( >= lam28n2 0 ) ( >= lam28n3 0 ) ( > ( + ( * 3 lam28n0 ) ( * Nl2CT1 lam28n1 ) ( * Nl2CT2 lam28n2 ) ( * Nl2CT3 lam28n3 ) ( - 1 ( - RFN1_CT ) ) ) 0 ) ( = ( + ( * ( - 1 ) lam28n0 ) ( * Nl2arg11 lam28n1 ) ( * Nl2arg12 lam28n2 ) ( * Nl2arg13 lam28n3 ) ( - ( - RFN1_arg1 ) ) ) 0 ) ) ( and ( >= lam29n0 0 ) ( >= lam29n1 0 ) ( >= lam29n2 0 ) ( >= lam29n3 0 ) ( > ( + ( * 3 lam29n0 ) ( * Nl2CT1 lam29n1 ) ( * Nl2CT2 lam29n2 ) ( * Nl2CT3 lam29n3 ) ( - 1 ( + ( - ( + RFN1_CT ( * RFN1_arg1 2 ) ) RFN1_CT ) 1 ) ) ) 0 ) ( = ( + ( * ( - 1 ) lam29n0 ) ( * Nl2arg11 lam29n1 ) ( * Nl2arg12 lam29n2 ) ( * Nl2arg13 lam29n3 ) ( - ( - ( + 0 ( * RFN1_arg1 ( - 1 ) ) ) RFN1_arg1 ) ) ) 0 ) ) ) ( and ( and ( >= lam32n0 0 ) ( >= lam32n1 0 ) ( >= lam32n2 0 ) ( >= lam32n3 0 ) ( > ( + ( * 3 lam32n0 ) ( * Nl2CT1 lam32n1 ) ( * Nl2CT2 lam32n2 ) ( * Nl2CT3 lam32n3 ) ( - 1 ( - RFN1_CT ) ) ) 0 ) ( = ( + ( * 1 lam32n0 ) ( * Nl2arg11 lam32n1 ) ( * Nl2arg12 lam32n2 ) ( * Nl2arg13 lam32n3 ) ( - ( - RFN1_arg1 ) ) ) 0 ) ) ( and ( >= lam33n0 0 ) ( >= lam33n1 0 ) ( >= lam33n2 0 ) ( >= lam33n3 0 ) ( > ( + ( * 3 lam33n0 ) ( * Nl2CT1 lam33n1 ) ( * Nl2CT2 lam33n2 ) ( * Nl2CT3 lam33n3 ) ( - 1 ( + ( - ( + RFN1_CT ( * RFN1_arg1 ( - 2 ) ) ) RFN1_CT ) 1 ) ) ) 0 ) ( = ( + ( * 1 lam33n0 ) ( * Nl2arg11 lam33n1 ) ( * Nl2arg12 lam33n2 ) ( * Nl2arg13 lam33n3 ) ( - ( - ( + 0 ( * RFN1_arg1 ( - 1 ) ) ) RFN1_arg1 ) ) ) 0 ) ) ) ) ) ( or ( and ( >= lam19n0 0 ) ( >= lam19n1 0 ) ( >= lam19n2 0 ) ( >= lam19n3 0 ) ( >= lam19n4 0 ) ( > ( + ( * 1 lam19n0 ) ( * ( - 2 ) lam19n1 ) ( * Nl2CT1 lam19n2 ) ( * Nl2CT2 lam19n3 ) ( * Nl2CT3 lam19n4 ) ( - 1 ) ) 0 ) ( = ( + ( * 1 lam19n0 ) ( * ( - 1 ) lam19n1 ) ( * Nl2arg11 lam19n2 ) ( * Nl2arg12 lam19n3 ) ( * Nl2arg13 lam19n4 ) ) 0 ) ) ( and ( >= lam23n0 0 ) ( >= lam23n1 0 ) ( >= lam23n2 0 ) ( >= lam23n3 0 ) ( >= lam23n4 0 ) ( > ( + ( * 1 lam23n0 ) ( * ( - 2 ) lam23n1 ) ( * Nl2CT1 lam23n2 ) ( * Nl2CT2 lam23n3 ) ( * Nl2CT3 lam23n4 ) ( - 1 ) ) 0 ) ( = ( + ( * ( - 1 ) lam23n0 ) ( * 1 lam23n1 ) ( * Nl2arg11 lam23n2 ) ( * Nl2arg12 lam23n3 ) ( * Nl2arg13 lam23n4 ) ) 0 ) ) ( and ( >= lam27n0 0 ) ( >= lam27n1 0 ) ( >= lam27n2 0 ) ( >= lam27n3 0 ) ( > ( + ( * 3 lam27n0 ) ( * Nl2CT1 lam27n1 ) ( * Nl2CT2 lam27n2 ) ( * Nl2CT3 lam27n3 ) ( - 1 ) ) 0 ) ( = ( + ( * ( - 1 ) lam27n0 ) ( * Nl2arg11 lam27n1 ) ( * Nl2arg12 lam27n2 ) ( * Nl2arg13 lam27n3 ) ) 0 ) ) ( and ( >= lam31n0 0 ) ( >= lam31n1 0 ) ( >= lam31n2 0 ) ( >= lam31n3 0 ) ( > ( + ( * 3 lam31n0 ) ( * Nl2CT1 lam31n1 ) ( * Nl2CT2 lam31n2 ) ( * Nl2CT3 lam31n3 ) ( - 1 ) ) 0 ) ( = ( + ( * 1 lam31n0 ) ( * Nl2arg11 lam31n1 ) ( * Nl2arg12 lam31n2 ) ( * Nl2arg13 lam31n3 ) ) 0 ) ) ) ))
(check-sat)
(exit)
